NAME /Users/henri/Research/solvers/instances/idol-instances/robust/collection/cbp_Subramanyam_et_al_2020/CapBud_N30_6/models/uncertain_technology_matrix/
ROWS
 N  OBJ
 L  capacity
 L  c_5635
 L  c_5636
 L  c_5637
 L  c_5638
 L  c_5639
 L  c_5640
 L  c_5641
 L  c_5642
 L  c_5643
 L  c_5644
 L  c_5645
 L  c_5646
 L  c_5647
 L  c_5648
 L  c_5649
 L  c_5650
 L  c_5651
 L  c_5652
 L  c_5653
 L  c_5654
 L  c_5655
 L  c_5656
 L  c_5657
 L  c_5658
 L  c_5659
 L  c_5660
 L  c_5661
 L  c_5662
 L  c_5663
 L  c_5664
COLUMNS
    MARKER    'MARKER'                 'INTORG'
    x_0        OBJ        1.53017
    x_0        c_5635     1
    x_0        capacity   0.306035
    x_1        OBJ        8.11635
    x_1        c_5636     1
    x_1        capacity   1.62327
    x_2        OBJ        5.44977
    x_2        c_5637     1
    x_2        capacity   1.08995
    x_3        OBJ        9.06304
    x_3        c_5638     1
    x_3        capacity   1.81261
    x_4        OBJ        0.0553486
    x_4        c_5639     1
    x_4        capacity   0.0110697
    x_5        OBJ        4.47682
    x_5        c_5640     1
    x_5        capacity   0.895365
    x_6        OBJ        1.07599
    x_6        c_5641     1
    x_6        capacity   0.215197
    x_7        OBJ        8.64711
    x_7        c_5642     1
    x_7        capacity   1.72942
    x_8        OBJ        9.75346
    x_8        c_5643     1
    x_8        capacity   1.95069
    x_9        OBJ        0.15035
    x_9        c_5644     1
    x_9        capacity   0.0300701
    x_10       OBJ        4.03899
    x_10       c_5645     1
    x_10       capacity   0.807798
    x_11       OBJ        2.58145
    x_11       c_5646     1
    x_11       capacity   0.51629
    x_12       OBJ        2.54183
    x_12       c_5647     1
    x_12       capacity   0.508365
    x_13       OBJ        4.66822
    x_13       c_5648     1
    x_13       capacity   0.933644
    x_14       OBJ        5.32686
    x_14       c_5649     1
    x_14       capacity   1.06537
    x_15       OBJ        0.351116
    x_15       c_5650     1
    x_15       capacity   0.0702232
    x_16       OBJ        5.50425
    x_16       c_5651     1
    x_16       capacity   1.10085
    x_17       OBJ        0.540197
    x_17       c_5652     1
    x_17       capacity   0.108039
    x_18       OBJ        0.0707318
    x_18       c_5653     1
    x_18       capacity   0.0141464
    x_19       OBJ        8.44956
    x_19       c_5654     1
    x_19       capacity   1.68991
    x_20       OBJ        1.42293
    x_20       c_5655     1
    x_20       capacity   0.284587
    x_21       OBJ        1.66642
    x_21       c_5656     1
    x_21       capacity   0.333283
    x_22       OBJ        1.29748
    x_22       c_5657     1
    x_22       capacity   0.259495
    x_23       OBJ        9.95229
    x_23       c_5658     1
    x_23       capacity   1.99046
    x_24       OBJ        6.30744
    x_24       c_5659     1
    x_24       capacity   1.26149
    x_25       OBJ        3.75317
    x_25       c_5660     1
    x_25       capacity   0.750634
    x_26       OBJ        4.6791
    x_26       c_5661     1
    x_26       capacity   0.935821
    x_27       OBJ        3.06774
    x_27       c_5662     1
    x_27       capacity   0.613549
    x_28       OBJ        6.71715
    x_28       c_5663     1
    x_28       capacity   1.34343
    x_29       OBJ        5.50168
    x_29       c_5664     1
    x_29       capacity   1.10034
    y_0        OBJ        1.22414
    y_0        c_5635     1
    y_0        capacity   0.306035
    y_1        OBJ        6.49308
    y_1        c_5636     1
    y_1        capacity   1.62327
    y_2        OBJ        4.35982
    y_2        c_5637     1
    y_2        capacity   1.08995
    y_3        OBJ        7.25043
    y_3        c_5638     1
    y_3        capacity   1.81261
    y_4        OBJ        0.0442789
    y_4        c_5639     1
    y_4        capacity   0.0110697
    y_5        OBJ        3.58146
    y_5        c_5640     1
    y_5        capacity   0.895365
    y_6        OBJ        0.860789
    y_6        c_5641     1
    y_6        capacity   0.215197
    y_7        OBJ        6.91768
    y_7        c_5642     1
    y_7        capacity   1.72942
    y_8        OBJ        7.80277
    y_8        c_5643     1
    y_8        capacity   1.95069
    y_9        OBJ        0.12028
    y_9        c_5644     1
    y_9        capacity   0.0300701
    y_10       OBJ        3.23119
    y_10       c_5645     1
    y_10       capacity   0.807798
    y_11       OBJ        2.06516
    y_11       c_5646     1
    y_11       capacity   0.51629
    y_12       OBJ        2.03346
    y_12       c_5647     1
    y_12       capacity   0.508365
    y_13       OBJ        3.73457
    y_13       c_5648     1
    y_13       capacity   0.933644
    y_14       OBJ        4.26149
    y_14       c_5649     1
    y_14       capacity   1.06537
    y_15       OBJ        0.280893
    y_15       c_5650     1
    y_15       capacity   0.0702232
    y_16       OBJ        4.4034
    y_16       c_5651     1
    y_16       capacity   1.10085
    y_17       OBJ        0.432157
    y_17       c_5652     1
    y_17       capacity   0.108039
    y_18       OBJ        0.0565854
    y_18       c_5653     1
    y_18       capacity   0.0141464
    y_19       OBJ        6.75965
    y_19       c_5654     1
    y_19       capacity   1.68991
    y_20       OBJ        1.13835
    y_20       c_5655     1
    y_20       capacity   0.284587
    y_21       OBJ        1.33313
    y_21       c_5656     1
    y_21       capacity   0.333283
    y_22       OBJ        1.03798
    y_22       c_5657     1
    y_22       capacity   0.259495
    y_23       OBJ        7.96183
    y_23       c_5658     1
    y_23       capacity   1.99046
    y_24       OBJ        5.04596
    y_24       c_5659     1
    y_24       capacity   1.26149
    y_25       OBJ        3.00253
    y_25       c_5660     1
    y_25       capacity   0.750634
    y_26       OBJ        3.74328
    y_26       c_5661     1
    y_26       capacity   0.935821
    y_27       OBJ        2.4542
    y_27       c_5662     1
    y_27       capacity   0.613549
    y_28       OBJ        5.37372
    y_28       c_5663     1
    y_28       capacity   1.34343
    y_29       OBJ        4.40134
    y_29       c_5664     1
    y_29       capacity   1.10034
    MARKER    'MARKER'                 'INTEND'
RHS
    RHS       capacity   63.3785
    RHS       c_5635     1
    RHS       c_5636     1
    RHS       c_5637     1
    RHS       c_5638     1
    RHS       c_5639     1
    RHS       c_5640     1
    RHS       c_5641     1
    RHS       c_5642     1
    RHS       c_5643     1
    RHS       c_5644     1
    RHS       c_5645     1
    RHS       c_5646     1
    RHS       c_5647     1
    RHS       c_5648     1
    RHS       c_5649     1
    RHS       c_5650     1
    RHS       c_5651     1
    RHS       c_5652     1
    RHS       c_5653     1
    RHS       c_5654     1
    RHS       c_5655     1
    RHS       c_5656     1
    RHS       c_5657     1
    RHS       c_5658     1
    RHS       c_5659     1
    RHS       c_5660     1
    RHS       c_5661     1
    RHS       c_5662     1
    RHS       c_5663     1
    RHS       c_5664     1
BOUNDS
 LI BND       x_0        0
 UI BND       x_0        1
 LI BND       x_1        0
 UI BND       x_1        1
 LI BND       x_2        0
 UI BND       x_2        1
 LI BND       x_3        0
 UI BND       x_3        1
 LI BND       x_4        0
 UI BND       x_4        1
 LI BND       x_5        0
 UI BND       x_5        1
 LI BND       x_6        0
 UI BND       x_6        1
 LI BND       x_7        0
 UI BND       x_7        1
 LI BND       x_8        0
 UI BND       x_8        1
 LI BND       x_9        0
 UI BND       x_9        1
 LI BND       x_10       0
 UI BND       x_10       1
 LI BND       x_11       0
 UI BND       x_11       1
 LI BND       x_12       0
 UI BND       x_12       1
 LI BND       x_13       0
 UI BND       x_13       1
 LI BND       x_14       0
 UI BND       x_14       1
 LI BND       x_15       0
 UI BND       x_15       1
 LI BND       x_16       0
 UI BND       x_16       1
 LI BND       x_17       0
 UI BND       x_17       1
 LI BND       x_18       0
 UI BND       x_18       1
 LI BND       x_19       0
 UI BND       x_19       1
 LI BND       x_20       0
 UI BND       x_20       1
 LI BND       x_21       0
 UI BND       x_21       1
 LI BND       x_22       0
 UI BND       x_22       1
 LI BND       x_23       0
 UI BND       x_23       1
 LI BND       x_24       0
 UI BND       x_24       1
 LI BND       x_25       0
 UI BND       x_25       1
 LI BND       x_26       0
 UI BND       x_26       1
 LI BND       x_27       0
 UI BND       x_27       1
 LI BND       x_28       0
 UI BND       x_28       1
 LI BND       x_29       0
 UI BND       x_29       1
 LI BND       y_0        0
 UI BND       y_0        1
 LI BND       y_1        0
 UI BND       y_1        1
 LI BND       y_2        0
 UI BND       y_2        1
 LI BND       y_3        0
 UI BND       y_3        1
 LI BND       y_4        0
 UI BND       y_4        1
 LI BND       y_5        0
 UI BND       y_5        1
 LI BND       y_6        0
 UI BND       y_6        1
 LI BND       y_7        0
 UI BND       y_7        1
 LI BND       y_8        0
 UI BND       y_8        1
 LI BND       y_9        0
 UI BND       y_9        1
 LI BND       y_10       0
 UI BND       y_10       1
 LI BND       y_11       0
 UI BND       y_11       1
 LI BND       y_12       0
 UI BND       y_12       1
 LI BND       y_13       0
 UI BND       y_13       1
 LI BND       y_14       0
 UI BND       y_14       1
 LI BND       y_15       0
 UI BND       y_15       1
 LI BND       y_16       0
 UI BND       y_16       1
 LI BND       y_17       0
 UI BND       y_17       1
 LI BND       y_18       0
 UI BND       y_18       1
 LI BND       y_19       0
 UI BND       y_19       1
 LI BND       y_20       0
 UI BND       y_20       1
 LI BND       y_21       0
 UI BND       y_21       1
 LI BND       y_22       0
 UI BND       y_22       1
 LI BND       y_23       0
 UI BND       y_23       1
 LI BND       y_24       0
 UI BND       y_24       1
 LI BND       y_25       0
 UI BND       y_25       1
 LI BND       y_26       0
 UI BND       y_26       1
 LI BND       y_27       0
 UI BND       y_27       1
 LI BND       y_28       0
 UI BND       y_28       1
 LI BND       y_29       0
 UI BND       y_29       1
ENDATA
